p cnf 48 37
-1 47 0 
-2 47 0 
-3 -4 -5 47 0 
-6 47 0 
-7 47 0 
-8 47 0 
-9 20 -10 15 -11 47 0 
-12 -13 -14 47 0 
-15 10 47 0 
-16 47 0 
-17 46 -18 47 0 
-11 47 0 
-19 47 0 
-20 9 -10 15 -18 -12 -14 47 0 
-14 -12 -18 -21 26 30 47 0 
-12 -18 47 0 
-22 -12 -3 -23 -18 47 0 
-18 47 0 
-24 47 0 
-25 47 0 
-26 21 30 47 0 
-11 -10 15 47 0 
-27 38 47 0 
-28 -29 -30 21 26 47 0 
-31 47 0 
-32 47 0 
-19 -33 -27 38 47 0 
-34 47 0 
-35 -36 -27 38 47 0 
-37 -30 21 26 47 0 
-20 9 -38 27 47 0 
-39 44 -4 -40 45 -41 -25 47 0 
-42 47 0 
-43 47 0 
-33 47 0 
-44 39 -45 40 -46 17 -18 48 0 
-12 -9 20 47 0 
